c Generated map
c Size: 8 * 8, weights in range: 1 to 10, walls: True, with ratio 0.1
c dim 1 of 10
c
p sp 64 94
c graph contains 64 nodes and 94 arcs
c
a 1 9 4
a 9 1 4
a 1 2 3
a 2 1 3
a 2 10 6
a 10 2 6
a 2 3 10
a 3 2 10
a 3 11 2
a 11 3 2
a 3 4 8
a 4 3 8
a 4 12 7
a 12 4 7
a 4 5 9
a 5 4 9
a 5 6 6
a 6 5 6
a 6 14 3
a 14 6 3
a 6 7 4
a 7 6 4
a 7 15 4
a 15 7 4
a 7 8 3
a 8 7 3
a 8 16 8
a 16 8 8
a 9 10 8
a 10 9 8
a 10 11 4
a 11 10 4
a 11 19 6
a 19 11 6
a 11 12 3
a 12 11 3
a 12 20 4
a 20 12 4
a 14 22 9
a 22 14 9
a 14 15 9
a 15 14 9
a 15 23 1
a 23 15 1
a 15 16 9
a 16 15 9
a 16 24 1
a 24 16 1
a 19 27 3
a 27 19 3
a 19 20 8
a 20 19 8
a 20 28 2
a 28 20 2
a 20 21 2
a 21 20 2
a 21 29 4
a 29 21 4
a 21 22 1
a 22 21 1
a 22 30 7
a 30 22 7
a 22 23 4
a 23 22 4
a 23 31 5
a 31 23 5
a 23 24 3
a 24 23 3
a 24 32 9
a 32 24 9
a 26 34 6
a 34 26 6
a 26 27 5
a 27 26 5
a 27 35 9
a 35 27 9
a 27 28 5
a 28 27 5
a 28 36 6
a 36 28 6
a 28 29 5
a 29 28 5
a 29 37 8
a 37 29 8
a 29 30 5
a 30 29 5
a 30 38 2
a 38 30 2
a 30 31 3
a 31 30 3
a 31 39 2
a 39 31 2
a 31 32 3
a 32 31 3
a 32 40 4
a 40 32 4
a 33 41 9
a 41 33 9
a 33 34 2
a 34 33 2
a 34 42 3
a 42 34 3
a 34 35 8
a 35 34 8
a 35 43 4
a 43 35 4
a 35 36 4
a 36 35 4
a 36 44 6
a 44 36 6
a 36 37 8
a 37 36 8
a 37 45 9
a 45 37 9
a 37 38 5
a 38 37 5
a 38 46 7
a 46 38 7
a 38 39 8
a 39 38 8
a 39 47 4
a 47 39 4
a 39 40 2
a 40 39 2
a 40 48 3
a 48 40 3
a 41 42 10
a 42 41 10
a 42 43 5
a 43 42 5
a 43 51 8
a 51 43 8
a 43 44 9
a 44 43 9
a 44 52 6
a 52 44 6
a 44 45 2
a 45 44 2
a 45 53 3
a 53 45 3
a 45 46 6
a 46 45 6
a 46 54 8
a 54 46 8
a 46 47 6
a 47 46 6
a 47 55 10
a 55 47 10
a 47 48 9
a 48 47 9
a 48 56 9
a 56 48 9
a 51 59 10
a 59 51 10
a 51 52 8
a 52 51 8
a 52 60 4
a 60 52 4
a 52 53 7
a 53 52 7
a 53 61 5
a 61 53 5
a 53 54 7
a 54 53 7
a 54 62 7
a 62 54 7
a 54 55 1
a 55 54 1
a 55 63 10
a 63 55 10
a 55 56 6
a 56 55 6
a 56 64 9
a 64 56 9
a 57 58 3
a 58 57 3
a 58 59 1
a 59 58 1
a 59 60 9
a 60 59 9
a 60 61 7
a 61 60 7
a 61 62 10
a 62 61 10
a 62 63 3
a 63 62 3
a 63 64 5
a 64 63 5
